\ This file has been generated by DOcplex
\ ENCODING=ISO-8859-1
\Problem name: dual_optimization

Maximize
 obj: 1000 p1_0 + 390 p1_1 + 340 p1_2 + 410 p1_3 + 400 p1_4 + 750 p1_5
      + 760 p1_6 + 600 p1_7 + 320 p1_8 + 900 p1_9 + 710 p1_10 + 200 p1_11
      + 310 p1_12 + 500 p1_13 + 270 p1_14 + 850 p1_15 + 730 p1_16 + 370 p1_17
      + 440 p1_18 + 600 p1_19 + 350 p1_20 + 590 p1_21 + 810 p1_22 + 710 p1_23
      + 500 p1_24 + 720 p1_25 + p3_1 + p3_2 + p3_3 + p3_4 + p3_5 + p3_6 + p3_7
      + p3_8 + p3_9 + p3_10 + p3_11 + p3_13 + p3_14 + p3_15 + p3_16 + p3_17
      + p3_18 + p3_19 + p3_20 + p3_21 + p3_22 + p3_23 + p3_25 + p3_26 + p3_27
      + p3_28 + p3_29 + p3_30 + p3_31 + p3_32 + p3_33 + p3_34 + p3_35 + p3_37
      + p3_38 + p3_39 + p3_40 + p3_41 + p3_42 + p3_43 + p3_44 + p3_45 + p3_46
      + p3_47 + p3_49 + p3_50 + p3_51 + p3_52 + p3_53 + p3_54 + p3_55 + p3_56
      + p3_57 + p3_58 + p3_59 + p3_61 + p3_62 + p3_63 + p3_64 + p3_65 + p3_66
      + p3_67 + p3_68 + p3_69 + p3_70 + p3_71 + p3_73 + p3_74 + p3_75 + p3_76
      + p3_77 + p3_78 + p3_79 + p3_80 + p3_81 + p3_82 + p3_83 + p3_85 + p3_86
      + p3_87 + p3_88 + p3_89 + p3_90 + p3_91 + p3_92 + p3_93 + p3_94 + p3_95
      + p3_97 + p3_98 + p3_99 + p3_100 + p3_101 + p3_102 + p3_103 + p3_104
      + p3_105 + p3_106 + p3_107 + p3_109 + p3_110 + p3_111 + p3_112 + p3_113
      + p3_114 + p3_115 + p3_116 + p3_117 + p3_118 + p3_119
Subject To
 c1: 1000 p2_0 + 390 p2_1 + 340 p2_2 + 410 p2_3 + 400 p2_4 + 750 p2_5 + 760 p2_6
     + 600 p2_7 + 320 p2_8 + 900 p2_9 + 710 p2_10 + 200 p2_11 + 310 p2_12
     + 500 p2_13 + 270 p2_14 + 850 p2_15 + 730 p2_16 + 370 p2_17 + 440 p2_18
     + 600 p2_19 + 350 p2_20 + 590 p2_21 + 810 p2_22 + 710 p2_23 + 500 p2_24
     + 720 p2_25 <= 1
 c2: - p3_0 >= 0
 c3: - p3_0 >= 0
 c4: - p3_0 >= 0
 c5: - 8 p1_0 + 8 p2_0 - p3_1 >= 0
 c6: - 8 p1_1 - 8 p1_5 + 8 p2_1 + 8 p2_5 - p3_1 >= 0
 c7: - 8 p1_2 - 8 p1_5 - 8 p1_11 + 8 p2_2 + 8 p2_5 + 8 p2_11 - p3_1 >= 0
 c8: - 9 p1_0 - 9 p1_4 + 9 p2_0 + 9 p2_4 - p3_2 >= 0
 c9: - 9 p1_1 - 9 p1_7 + 9 p2_1 + 9 p2_7 - p3_2 >= 0
 c10: - 9 p1_2 - 9 p1_7 - 9 p1_11 + 9 p2_2 + 9 p2_7 + 9 p2_11 - p3_2 >= 0
 c11: - 6 p1_1 + 6 p2_1 - p3_3 >= 0
 c12: - 6 p1_2 - 6 p1_11 + 6 p2_2 + 6 p2_11 - p3_3 >= 0
 c13: - 6 p1_0 - 6 p1_5 + 6 p2_0 + 6 p2_5 - p3_3 >= 0
 c14: - 10 p1_2 + 10 p2_2 - p3_4 >= 0
 c15: - 10 p1_3 - 10 p1_14 + 10 p2_3 + 10 p2_14 - p3_4 >= 0
 c16: - 10 p1_1 - 10 p1_11 + 10 p2_1 + 10 p2_11 - p3_4 >= 0
 c17: - 7 p1_2 - 7 p1_13 + 7 p2_2 + 7 p2_13 - p3_5 >= 0
 c18: - 7 p1_1 - 7 p1_12 + 7 p2_1 + 7 p2_12 - p3_5 >= 0
 c19: - 7 p1_2 - 7 p1_11 - 7 p1_12 + 7 p2_2 + 7 p2_11 + 7 p2_12 - p3_5 >= 0
 c20: - 9 p1_0 - 9 p1_4 - 9 p1_8 + 9 p2_0 + 9 p2_4 + 9 p2_8 - p3_6 >= 0
 c21: - 9 p1_1 - 9 p1_7 - 9 p1_8 + 9 p2_1 + 9 p2_7 + 9 p2_8 - p3_6 >= 0
 c22: - 9 p1_2 - 9 p1_7 - 9 p1_8 - 9 p1_11 + 9 p2_2 + 9 p2_7 + 9 p2_8 + 9 p2_11
      - p3_6 >= 0
 c23: - 10 p1_3 + 10 p2_3 - p3_7 >= 0
 c24: - 10 p1_2 - 10 p1_14 + 10 p2_2 + 10 p2_14 - p3_7 >= 0
 c25: - 10 p1_1 - 10 p1_11 - 10 p1_14 + 10 p2_1 + 10 p2_11 + 10 p2_14 - p3_7
       >= 0
 c26: - 5 p1_2 - 5 p1_13 - 5 p1_18 + 5 p2_2 + 5 p2_13 + 5 p2_18 - p3_8 >= 0
 c27: - 5 p1_3 - 5 p1_22 - 5 p1_24 + 5 p2_3 + 5 p2_22 + 5 p2_24 - p3_8 >= 0
 c28: - 5 p1_3 - 5 p1_22 - 5 p1_23 - 5 p1_25 + 5 p2_3 + 5 p2_22 + 5 p2_23
      + 5 p2_25 - p3_8 >= 0
 c29: - 8 p1_3 - 8 p1_22 - 8 p1_25 + 8 p2_3 + 8 p2_22 + 8 p2_25 - p3_9 >= 0
 c30: - 8 p1_2 - 8 p1_14 - 8 p1_22 - 8 p1_25 + 8 p2_2 + 8 p2_14 + 8 p2_22
      + 8 p2_25 - p3_9 >= 0
 c31: - 8 p1_3 - 8 p1_22 - 8 p1_23 - 8 p1_24 + 8 p2_3 + 8 p2_22 + 8 p2_23
      + 8 p2_24 - p3_9 >= 0
 c32: - 5 p1_3 - 5 p1_22 + 5 p2_3 + 5 p2_22 - p3_10 >= 0
 c33: - 5 p1_2 - 5 p1_14 - 5 p1_22 + 5 p2_2 + 5 p2_14 + 5 p2_22 - p3_10 >= 0
 c34: - 5 p1_2 - 5 p1_15 + 5 p2_2 + 5 p2_15 - p3_10 >= 0
 c35: - 9 p1_0 + 9 p2_0 - p3_11 >= 0
 c36: - 9 p1_1 - 9 p1_5 + 9 p2_1 + 9 p2_5 - p3_11 >= 0
 c37: - 9 p1_2 - 9 p1_5 - 9 p1_11 + 9 p2_2 + 9 p2_5 + 9 p2_11 - p3_11 >= 0
 c38: - p3_12 >= 0
 c39: - p3_12 >= 0
 c40: - p3_12 >= 0
 c41: - 10 p1_4 + 10 p2_4 - p3_13 >= 0
 c42: - 10 p1_5 - 10 p1_7 + 10 p2_5 + 10 p2_7 - p3_13 >= 0
 c43: - 10 p1_6 - 10 p1_8 + 10 p2_6 + 10 p2_8 - p3_13 >= 0
 c44: - 6 p1_5 + 6 p2_5 - p3_14 >= 0
 c45: - 6 p1_4 - 6 p1_7 + 6 p2_4 + 6 p2_7 - p3_14 >= 0
 c46: - 6 p1_0 - 6 p1_1 + 6 p2_0 + 6 p2_1 - p3_14 >= 0
 c47: - 8 p1_0 - 8 p1_2 + 8 p2_0 + 8 p2_2 - p3_15 >= 0
 c48: - 8 p1_5 - 8 p1_11 + 8 p2_5 + 8 p2_11 - p3_15 >= 0
 c49: - 8 p1_1 - 8 p1_2 - 8 p1_5 + 8 p2_1 + 8 p2_2 + 8 p2_5 - p3_15 >= 0
 c50: - 5 p1_5 - 5 p1_12 + 5 p2_5 + 5 p2_12 - p3_16 >= 0
 c51: - 5 p1_4 - 5 p1_7 - 5 p1_12 + 5 p2_4 + 5 p2_7 + 5 p2_12 - p3_16 >= 0
 c52: - 5 p1_4 - 5 p1_8 - 5 p1_16 + 5 p2_4 + 5 p2_8 + 5 p2_16 - p3_16 >= 0
 c53: - 7 p1_4 - 7 p1_8 + 7 p2_4 + 7 p2_8 - p3_17 >= 0
 c54: - 7 p1_5 - 7 p1_7 - 7 p1_8 + 7 p2_5 + 7 p2_7 + 7 p2_8 - p3_17 >= 0
 c55: - 7 p1_6 + 7 p2_6 - p3_17 >= 0
 c56: - 5 p1_0 - 5 p1_3 + 5 p2_0 + 5 p2_3 - p3_18 >= 0
 c57: - 5 p1_1 - 5 p1_3 - 5 p1_5 + 5 p2_1 + 5 p2_3 + 5 p2_5 - p3_18 >= 0
 c58: - 5 p1_2 - 5 p1_3 - 5 p1_5 - 5 p1_11 + 5 p2_2 + 5 p2_3 + 5 p2_5 + 5 p2_11
      - p3_18 >= 0
 c59: - 7 p1_5 - 7 p1_12 - 7 p1_18 + 7 p2_5 + 7 p2_12 + 7 p2_18 - p3_19 >= 0
 c60: - 7 p1_4 - 7 p1_10 - 7 p1_23 + 7 p2_4 + 7 p2_10 + 7 p2_23 - p3_19 >= 0
 c61: - 7 p1_4 - 7 p1_8 - 7 p1_19 + 7 p2_4 + 7 p2_8 + 7 p2_19 - p3_19 >= 0
 c62: - 9 p1_4 - 9 p1_10 + 9 p2_4 + 9 p2_10 - p3_20 >= 0
 c63: - 9 p1_5 - 9 p1_7 - 9 p1_10 + 9 p2_5 + 9 p2_7 + 9 p2_10 - p3_20 >= 0
 c64: - 9 p1_5 - 9 p1_12 - 9 p1_18 - 9 p1_23 + 9 p2_5 + 9 p2_12 + 9 p2_18
      + 9 p2_23 - p3_20 >= 0
 c65: - 6 p1_4 - 6 p1_10 - 6 p1_25 + 6 p2_4 + 6 p2_10 + 6 p2_25 - p3_21 >= 0
 c66: - 6 p1_0 - 6 p1_3 - 6 p1_22 + 6 p2_0 + 6 p2_3 + 6 p2_22 - p3_21 >= 0
 c67: - 6 p1_1 - 6 p1_3 - 6 p1_5 - 6 p1_22 + 6 p2_1 + 6 p2_3 + 6 p2_5 + 6 p2_22
      - p3_21 >= 0
 c68: - 5 p1_0 - 5 p1_4 + 5 p2_0 + 5 p2_4 - p3_22 >= 0
 c69: - 5 p1_1 - 5 p1_7 + 5 p2_1 + 5 p2_7 - p3_22 >= 0
 c70: - 5 p1_2 - 5 p1_7 - 5 p1_11 + 5 p2_2 + 5 p2_7 + 5 p2_11 - p3_22 >= 0
 c71: - 9 p1_4 + 9 p2_4 - p3_23 >= 0
 c72: - 9 p1_5 - 9 p1_7 + 9 p2_5 + 9 p2_7 - p3_23 >= 0
 c73: - 9 p1_6 - 9 p1_8 + 9 p2_6 + 9 p2_8 - p3_23 >= 0
 c74: - p3_24 >= 0
 c75: - p3_24 >= 0
 c76: - p3_24 >= 0
 c77: - 9 p1_7 + 9 p2_7 - p3_25 >= 0
 c78: - 9 p1_4 - 9 p1_5 + 9 p2_4 + 9 p2_5 - p3_25 >= 0
 c79: - 9 p1_0 - 9 p1_1 - 9 p1_4 + 9 p2_0 + 9 p2_1 + 9 p2_4 - p3_25 >= 0
 c80: - 10 p1_7 - 10 p1_11 + 10 p2_7 + 10 p2_11 - p3_26 >= 0
 c81: - 10 p1_0 - 10 p1_2 - 10 p1_4 + 10 p2_0 + 10 p2_2 + 10 p2_4 - p3_26 >= 0
 c82: - 10 p1_4 - 10 p1_5 - 10 p1_11 + 10 p2_4 + 10 p2_5 + 10 p2_11 - p3_26 >= 
      0
 c83: - 5 p1_7 - 5 p1_12 + 5 p2_7 + 5 p2_12 - p3_27 >= 0
 c84: - 5 p1_8 - 5 p1_16 + 5 p2_8 + 5 p2_16 - p3_27 >= 0
 c85: - 5 p1_4 - 5 p1_5 - 5 p1_12 + 5 p2_4 + 5 p2_5 + 5 p2_12 - p3_27 >= 0
 c86: - 5 p1_8 + 5 p2_8 - p3_28 >= 0
 c87: - 5 p1_4 - 5 p1_6 + 5 p2_4 + 5 p2_6 - p3_28 >= 0
 c88: - 5 p1_5 - 5 p1_6 - 5 p1_7 + 5 p2_5 + 5 p2_6 + 5 p2_7 - p3_28 >= 0
 c89: - 7 p1_9 + 7 p2_9 - p3_29 >= 0
 c90: - 7 p1_0 - 7 p1_3 - 7 p1_4 + 7 p2_0 + 7 p2_3 + 7 p2_4 - p3_29 >= 0
 c91: - 7 p1_1 - 7 p1_3 - 7 p1_7 + 7 p2_1 + 7 p2_3 + 7 p2_7 - p3_29 >= 0
 c92: - 7 p1_10 - 7 p1_23 + 7 p2_10 + 7 p2_23 - p3_30 >= 0
 c93: - 7 p1_8 - 7 p1_19 + 7 p2_8 + 7 p2_19 - p3_30 >= 0
 c94: - 7 p1_7 - 7 p1_12 - 7 p1_18 + 7 p2_7 + 7 p2_12 + 7 p2_18 - p3_30 >= 0
 c95: - 9 p1_10 + 9 p2_10 - p3_31 >= 0
 c96: - 9 p1_8 - 9 p1_20 + 9 p2_8 + 9 p2_20 - p3_31 >= 0
 c97: - 9 p1_7 - 9 p1_12 - 9 p1_18 - 9 p1_23 + 9 p2_7 + 9 p2_12 + 9 p2_18
      + 9 p2_23 - p3_31 >= 0
 c98: - 8 p1_10 - 8 p1_25 + 8 p2_10 + 8 p2_25 - p3_32 >= 0
 c99: - 8 p1_9 - 8 p1_22 + 8 p2_9 + 8 p2_22 - p3_32 >= 0
 c100: - 8 p1_10 - 8 p1_23 - 8 p1_24 + 8 p2_10 + 8 p2_23 + 8 p2_24 - p3_32 >= 0
 c101: - 7 p1_1 + 7 p2_1 - p3_33 >= 0
 c102: - 7 p1_2 - 7 p1_11 + 7 p2_2 + 7 p2_11 - p3_33 >= 0
 c103: - 7 p1_0 - 7 p1_5 + 7 p2_0 + 7 p2_5 - p3_33 >= 0
 c104: - 8 p1_5 + 8 p2_5 - p3_34 >= 0
 c105: - 8 p1_4 - 8 p1_7 + 8 p2_4 + 8 p2_7 - p3_34 >= 0
 c106: - 8 p1_0 - 8 p1_1 + 8 p2_0 + 8 p2_1 - p3_34 >= 0
 c107: - 10 p1_7 + 10 p2_7 - p3_35 >= 0
 c108: - 10 p1_4 - 10 p1_5 + 10 p2_4 + 10 p2_5 - p3_35 >= 0
 c109: - 10 p1_0 - 10 p1_1 - 10 p1_4 + 10 p2_0 + 10 p2_1 + 10 p2_4 - p3_35 >= 0
 c110: - p3_36 >= 0
 c111: - p3_36 >= 0
 c112: - p3_36 >= 0
 c113: - 9 p1_11 + 9 p2_11 - p3_37 >= 0
 c114: - 9 p1_1 - 9 p1_2 + 9 p2_1 + 9 p2_2 - p3_37 >= 0
 c115: - 9 p1_0 - 9 p1_2 - 9 p1_5 + 9 p2_0 + 9 p2_2 + 9 p2_5 - p3_37 >= 0
 c116: - 8 p1_12 + 8 p2_12 - p3_38 >= 0
 c117: - 8 p1_11 - 8 p1_13 + 8 p2_11 + 8 p2_13 - p3_38 >= 0
 c118: - 8 p1_7 - 8 p1_8 - 8 p1_16 + 8 p2_7 + 8 p2_8 + 8 p2_16 - p3_38 >= 0
 c119: - 7 p1_7 - 7 p1_8 + 7 p2_7 + 7 p2_8 - p3_39 >= 0
 c120: - 7 p1_4 - 7 p1_5 - 7 p1_8 + 7 p2_4 + 7 p2_5 + 7 p2_8 - p3_39 >= 0
 c121: - 7 p1_5 - 7 p1_6 + 7 p2_5 + 7 p2_6 - p3_39 >= 0
 c122: - 7 p1_1 - 7 p1_3 + 7 p2_1 + 7 p2_3 - p3_40 >= 0
 c123: - 7 p1_2 - 7 p1_3 - 7 p1_11 + 7 p2_2 + 7 p2_3 + 7 p2_11 - p3_40 >= 0
 c124: - 7 p1_11 - 7 p1_14 + 7 p2_11 + 7 p2_14 - p3_40 >= 0
 c125: - 10 p1_12 - 10 p1_18 + 10 p2_12 + 10 p2_18 - p3_41 >= 0
 c126: - 10 p1_7 - 10 p1_10 - 10 p1_23 + 10 p2_7 + 10 p2_10 + 10 p2_23 - p3_41
        >= 0
 c127: - 10 p1_11 - 10 p1_13 - 10 p1_18 + 10 p2_11 + 10 p2_13 + 10 p2_18 - p3_41
        >= 0
 c128: - 7 p1_7 - 7 p1_10 + 7 p2_7 + 7 p2_10 - p3_42 >= 0
 c129: - 7 p1_12 - 7 p1_18 - 7 p1_23 + 7 p2_12 + 7 p2_18 + 7 p2_23 - p3_42 >= 0
 c130: - 7 p1_4 - 7 p1_5 - 7 p1_10 + 7 p2_4 + 7 p2_5 + 7 p2_10 - p3_42 >= 0
 c131: - 5 p1_1 - 5 p1_3 - 5 p1_22 + 5 p2_1 + 5 p2_3 + 5 p2_22 - p3_43 >= 0
 c132: - 5 p1_2 - 5 p1_3 - 5 p1_11 - 5 p1_22 + 5 p2_2 + 5 p2_3 + 5 p2_11
       + 5 p2_22 - p3_43 >= 0
 c133: - 5 p1_7 - 5 p1_10 - 5 p1_25 + 5 p2_7 + 5 p2_10 + 5 p2_25 - p3_43 >= 0
 c134: - 6 p1_2 + 6 p2_2 - p3_44 >= 0
 c135: - 6 p1_3 - 6 p1_14 + 6 p2_3 + 6 p2_14 - p3_44 >= 0
 c136: - 6 p1_1 - 6 p1_11 + 6 p2_1 + 6 p2_11 - p3_44 >= 0
 c137: - 9 p1_0 - 9 p1_2 + 9 p2_0 + 9 p2_2 - p3_45 >= 0
 c138: - 9 p1_5 - 9 p1_11 + 9 p2_5 + 9 p2_11 - p3_45 >= 0
 c139: - 9 p1_1 - 9 p1_2 - 9 p1_5 + 9 p2_1 + 9 p2_2 + 9 p2_5 - p3_45 >= 0
 c140: - 6 p1_7 - 6 p1_11 + 6 p2_7 + 6 p2_11 - p3_46 >= 0
 c141: - 6 p1_0 - 6 p1_2 - 6 p1_4 + 6 p2_0 + 6 p2_2 + 6 p2_4 - p3_46 >= 0
 c142: - 6 p1_4 - 6 p1_5 - 6 p1_11 + 6 p2_4 + 6 p2_5 + 6 p2_11 - p3_46 >= 0
 c143: - 6 p1_11 + 6 p2_11 - p3_47 >= 0
 c144: - 6 p1_1 - 6 p1_2 + 6 p2_1 + 6 p2_2 - p3_47 >= 0
 c145: - 6 p1_0 - 6 p1_2 - 6 p1_5 + 6 p2_0 + 6 p2_2 + 6 p2_5 - p3_47 >= 0
 c146: - p3_48 >= 0
 c147: - p3_48 >= 0
 c148: - p3_48 >= 0
 c149: - 9 p1_13 + 9 p2_13 - p3_49 >= 0
 c150: - 9 p1_11 - 9 p1_12 + 9 p2_11 + 9 p2_12 - p3_49 >= 0
 c151: - 9 p1_1 - 9 p1_2 - 9 p1_12 + 9 p2_1 + 9 p2_2 + 9 p2_12 - p3_49 >= 0
 c152: - 9 p1_7 - 9 p1_8 - 9 p1_11 + 9 p2_7 + 9 p2_8 + 9 p2_11 - p3_50 >= 0
 c153: - 9 p1_0 - 9 p1_2 - 9 p1_4 - 9 p1_8 + 9 p2_0 + 9 p2_2 + 9 p2_4 + 9 p2_8
       - p3_50 >= 0
 c154: - 9 p1_4 - 9 p1_5 - 9 p1_8 - 9 p1_11 + 9 p2_4 + 9 p2_5 + 9 p2_8 + 9 p2_11
       - p3_50 >= 0
 c155: - 5 p1_2 - 5 p1_3 + 5 p2_2 + 5 p2_3 - p3_51 >= 0
 c156: - 5 p1_14 + 5 p2_14 - p3_51 >= 0
 c157: - 5 p1_1 - 5 p1_3 - 5 p1_11 + 5 p2_1 + 5 p2_3 + 5 p2_11 - p3_51 >= 0
 c158: - 7 p1_13 - 7 p1_18 + 7 p2_13 + 7 p2_18 - p3_52 >= 0
 c159: - 7 p1_11 - 7 p1_12 - 7 p1_18 + 7 p2_11 + 7 p2_12 + 7 p2_18 - p3_52 >= 0
 c160: - 7 p1_2 - 7 p1_3 - 7 p1_22 - 7 p1_24 + 7 p2_2 + 7 p2_3 + 7 p2_22
       + 7 p2_24 - p3_52 >= 0
 c161: - 8 p1_2 - 8 p1_3 - 8 p1_22 - 8 p1_25 + 8 p2_2 + 8 p2_3 + 8 p2_22
       + 8 p2_25 - p3_53 >= 0
 c162: - 8 p1_14 - 8 p1_22 - 8 p1_25 + 8 p2_14 + 8 p2_22 + 8 p2_25 - p3_53 >= 0
 c163: - 8 p1_13 - 8 p1_18 - 8 p1_23 + 8 p2_13 + 8 p2_18 + 8 p2_23 - p3_53 >= 0
 c164: - 5 p1_2 - 5 p1_3 - 5 p1_22 + 5 p2_2 + 5 p2_3 + 5 p2_22 - p3_54 >= 0
 c165: - 5 p1_14 - 5 p1_22 + 5 p2_14 + 5 p2_22 - p3_54 >= 0
 c166: - 5 p1_15 + 5 p2_15 - p3_54 >= 0
 c167: - 6 p1_2 - 6 p1_13 + 6 p2_2 + 6 p2_13 - p3_55 >= 0
 c168: - 6 p1_1 - 6 p1_12 + 6 p2_1 + 6 p2_12 - p3_55 >= 0
 c169: - 6 p1_2 - 6 p1_11 - 6 p1_12 + 6 p2_2 + 6 p2_11 + 6 p2_12 - p3_55 >= 0
 c170: - 7 p1_5 - 7 p1_12 + 7 p2_5 + 7 p2_12 - p3_56 >= 0
 c171: - 7 p1_4 - 7 p1_7 - 7 p1_12 + 7 p2_4 + 7 p2_7 + 7 p2_12 - p3_56 >= 0
 c172: - 7 p1_4 - 7 p1_8 - 7 p1_16 + 7 p2_4 + 7 p2_8 + 7 p2_16 - p3_56 >= 0
 c173: - 9 p1_7 - 9 p1_12 + 9 p2_7 + 9 p2_12 - p3_57 >= 0
 c174: - 9 p1_8 - 9 p1_16 + 9 p2_8 + 9 p2_16 - p3_57 >= 0
 c175: - 9 p1_4 - 9 p1_5 - 9 p1_12 + 9 p2_4 + 9 p2_5 + 9 p2_12 - p3_57 >= 0
 c176: - 9 p1_12 + 9 p2_12 - p3_58 >= 0
 c177: - 9 p1_11 - 9 p1_13 + 9 p2_11 + 9 p2_13 - p3_58 >= 0
 c178: - 9 p1_7 - 9 p1_8 - 9 p1_16 + 9 p2_7 + 9 p2_8 + 9 p2_16 - p3_58 >= 0
 c179: - 5 p1_13 + 5 p2_13 - p3_59 >= 0
 c180: - 5 p1_11 - 5 p1_12 + 5 p2_11 + 5 p2_12 - p3_59 >= 0
 c181: - 5 p1_1 - 5 p1_2 - 5 p1_12 + 5 p2_1 + 5 p2_2 + 5 p2_12 - p3_59 >= 0
 c182: - p3_60 >= 0
 c183: - p3_60 >= 0
 c184: - p3_60 >= 0
 c185: - 5 p1_16 + 5 p2_16 - p3_61 >= 0
 c186: - 5 p1_7 - 5 p1_8 - 5 p1_12 + 5 p2_7 + 5 p2_8 + 5 p2_12 - p3_61 >= 0
 c187: - 5 p1_4 - 5 p1_5 - 5 p1_8 - 5 p1_12 + 5 p2_4 + 5 p2_5 + 5 p2_8 + 5 p2_12
       - p3_61 >= 0
 c188: - 6 p1_17 + 6 p2_17 - p3_62 >= 0
 c189: - 6 p1_2 - 6 p1_3 - 6 p1_13 + 6 p2_2 + 6 p2_3 + 6 p2_13 - p3_62 >= 0
 c190: - 6 p1_1 - 6 p1_3 - 6 p1_12 + 6 p2_1 + 6 p2_3 + 6 p2_12 - p3_62 >= 0
 c191: - 10 p1_18 + 10 p2_18 - p3_63 >= 0
 c192: - 10 p1_7 - 10 p1_10 - 10 p1_12 - 10 p1_23 + 10 p2_7 + 10 p2_10
       + 10 p2_12 + 10 p2_23 - p3_63 >= 0
 c193: - 10 p1_16 - 10 p1_19 + 10 p2_16 + 10 p2_19 - p3_63 >= 0
 c194: - 10 p1_18 - 10 p1_23 + 10 p2_18 + 10 p2_23 - p3_64 >= 0
 c195: - 10 p1_18 - 10 p1_24 - 10 p1_25 + 10 p2_18 + 10 p2_24 + 10 p2_25 - p3_64
        >= 0
 c196: - 10 p1_7 - 10 p1_10 - 10 p1_12 + 10 p2_7 + 10 p2_10 + 10 p2_12 - p3_64
        >= 0
 c197: - 7 p1_18 - 7 p1_24 + 7 p2_18 + 7 p2_24 - p3_65 >= 0
 c198: - 7 p1_18 - 7 p1_23 - 7 p1_25 + 7 p2_18 + 7 p2_23 + 7 p2_25 - p3_65 >= 0
 c199: - 7 p1_17 - 7 p1_22 + 7 p2_17 + 7 p2_22 - p3_65 >= 0
 c200: - 5 p1_0 - 5 p1_4 - 5 p1_8 + 5 p2_0 + 5 p2_4 + 5 p2_8 - p3_66 >= 0
 c201: - 5 p1_1 - 5 p1_7 - 5 p1_8 + 5 p2_1 + 5 p2_7 + 5 p2_8 - p3_66 >= 0
 c202: - 5 p1_2 - 5 p1_7 - 5 p1_8 - 5 p1_11 + 5 p2_2 + 5 p2_7 + 5 p2_8 + 5 p2_11
       - p3_66 >= 0
 c203: - 7 p1_4 - 7 p1_8 + 7 p2_4 + 7 p2_8 - p3_67 >= 0
 c204: - 7 p1_5 - 7 p1_7 - 7 p1_8 + 7 p2_5 + 7 p2_7 + 7 p2_8 - p3_67 >= 0
 c205: - 7 p1_6 + 7 p2_6 - p3_67 >= 0
 c206: - 8 p1_8 + 8 p2_8 - p3_68 >= 0
 c207: - 8 p1_4 - 8 p1_6 + 8 p2_4 + 8 p2_6 - p3_68 >= 0
 c208: - 8 p1_5 - 8 p1_6 - 8 p1_7 + 8 p2_5 + 8 p2_6 + 8 p2_7 - p3_68 >= 0
 c209: - 7 p1_7 - 7 p1_8 + 7 p2_7 + 7 p2_8 - p3_69 >= 0
 c210: - 7 p1_4 - 7 p1_5 - 7 p1_8 + 7 p2_4 + 7 p2_5 + 7 p2_8 - p3_69 >= 0
 c211: - 7 p1_5 - 7 p1_6 + 7 p2_5 + 7 p2_6 - p3_69 >= 0
 c212: - 10 p1_7 - 10 p1_8 - 10 p1_11 + 10 p2_7 + 10 p2_8 + 10 p2_11 - p3_70
        >= 0
 c213: - 10 p1_0 - 10 p1_2 - 10 p1_4 - 10 p1_8 + 10 p2_0 + 10 p2_2 + 10 p2_4
       + 10 p2_8 - p3_70 >= 0
 c214: - 10 p1_4 - 10 p1_5 - 10 p1_8 - 10 p1_11 + 10 p2_4 + 10 p2_5 + 10 p2_8
       + 10 p2_11 - p3_70 >= 0
 c215: - 5 p1_16 + 5 p2_16 - p3_71 >= 0
 c216: - 5 p1_7 - 5 p1_8 - 5 p1_12 + 5 p2_7 + 5 p2_8 + 5 p2_12 - p3_71 >= 0
 c217: - 5 p1_4 - 5 p1_5 - 5 p1_8 - 5 p1_12 + 5 p2_4 + 5 p2_5 + 5 p2_8 + 5 p2_12
       - p3_71 >= 0
 c218: - p3_72 >= 0
 c219: - p3_72 >= 0
 c220: - p3_72 >= 0
 c221: - 6 p1_8 - 6 p1_9 + 6 p2_8 + 6 p2_9 - p3_73 >= 0
 c222: - 6 p1_0 - 6 p1_3 - 6 p1_4 - 6 p1_8 + 6 p2_0 + 6 p2_3 + 6 p2_4 + 6 p2_8
       - p3_73 >= 0
 c223: - 6 p1_1 - 6 p1_3 - 6 p1_7 - 6 p1_8 + 6 p2_1 + 6 p2_3 + 6 p2_7 + 6 p2_8
       - p3_73 >= 0
 c224: - 10 p1_19 + 10 p2_19 - p3_74 >= 0
 c225: - 10 p1_8 - 10 p1_10 - 10 p1_23 + 10 p2_8 + 10 p2_10 + 10 p2_23 - p3_74
        >= 0
 c226: - 10 p1_16 - 10 p1_18 + 10 p2_16 + 10 p2_18 - p3_74 >= 0
 c227: - 9 p1_8 - 9 p1_10 + 9 p2_8 + 9 p2_10 - p3_75 >= 0
 c228: - 9 p1_20 + 9 p2_20 - p3_75 >= 0
 c229: - 9 p1_19 - 9 p1_23 + 9 p2_19 + 9 p2_23 - p3_75 >= 0
 c230: - 9 p1_8 - 9 p1_10 - 9 p1_25 + 9 p2_8 + 9 p2_10 + 9 p2_25 - p3_76 >= 0
 c231: - 9 p1_19 - 9 p1_24 + 9 p2_19 + 9 p2_24 - p3_76 >= 0
 c232: - 9 p1_8 - 9 p1_9 - 9 p1_22 + 9 p2_8 + 9 p2_9 + 9 p2_22 - p3_76 >= 0
 c233: - 7 p1_3 + 7 p2_3 - p3_77 >= 0
 c234: - 7 p1_2 - 7 p1_14 + 7 p2_2 + 7 p2_14 - p3_77 >= 0
 c235: - 7 p1_1 - 7 p1_11 - 7 p1_14 + 7 p2_1 + 7 p2_11 + 7 p2_14 - p3_77 >= 0
 c236: - 8 p1_0 - 8 p1_3 + 8 p2_0 + 8 p2_3 - p3_78 >= 0
 c237: - 8 p1_1 - 8 p1_3 - 8 p1_5 + 8 p2_1 + 8 p2_3 + 8 p2_5 - p3_78 >= 0
 c238: - 8 p1_2 - 8 p1_3 - 8 p1_5 - 8 p1_11 + 8 p2_2 + 8 p2_3 + 8 p2_5 + 8 p2_11
       - p3_78 >= 0
 c239: - 8 p1_9 + 8 p2_9 - p3_79 >= 0
 c240: - 8 p1_0 - 8 p1_3 - 8 p1_4 + 8 p2_0 + 8 p2_3 + 8 p2_4 - p3_79 >= 0
 c241: - 8 p1_1 - 8 p1_3 - 8 p1_7 + 8 p2_1 + 8 p2_3 + 8 p2_7 - p3_79 >= 0
 c242: - 6 p1_1 - 6 p1_3 + 6 p2_1 + 6 p2_3 - p3_80 >= 0
 c243: - 6 p1_2 - 6 p1_3 - 6 p1_11 + 6 p2_2 + 6 p2_3 + 6 p2_11 - p3_80 >= 0
 c244: - 6 p1_11 - 6 p1_14 + 6 p2_11 + 6 p2_14 - p3_80 >= 0
 c245: - 5 p1_2 - 5 p1_3 + 5 p2_2 + 5 p2_3 - p3_81 >= 0
 c246: - 5 p1_14 + 5 p2_14 - p3_81 >= 0
 c247: - 5 p1_1 - 5 p1_3 - 5 p1_11 + 5 p2_1 + 5 p2_3 + 5 p2_11 - p3_81 >= 0
 c248: - 9 p1_17 + 9 p2_17 - p3_82 >= 0
 c249: - 9 p1_2 - 9 p1_3 - 9 p1_13 + 9 p2_2 + 9 p2_3 + 9 p2_13 - p3_82 >= 0
 c250: - 9 p1_13 - 9 p1_14 + 9 p2_13 + 9 p2_14 - p3_82 >= 0
 c251: - 6 p1_8 - 6 p1_9 + 6 p2_8 + 6 p2_9 - p3_83 >= 0
 c252: - 6 p1_0 - 6 p1_3 - 6 p1_4 - 6 p1_8 + 6 p2_0 + 6 p2_3 + 6 p2_4 + 6 p2_8
       - p3_83 >= 0
 c253: - 6 p1_1 - 6 p1_3 - 6 p1_7 - 6 p1_8 + 6 p2_1 + 6 p2_3 + 6 p2_7 + 6 p2_8
       - p3_83 >= 0
 c254: - p3_84 >= 0
 c255: - p3_84 >= 0
 c256: - p3_84 >= 0
 c257: - 6 p1_22 - 6 p1_24 + 6 p2_22 + 6 p2_24 - p3_85 >= 0
 c258: - 6 p1_22 - 6 p1_23 - 6 p1_25 + 6 p2_22 + 6 p2_23 + 6 p2_25 - p3_85 >= 0
 c259: - 6 p1_21 + 6 p2_21 - p3_85 >= 0
 c260: - 5 p1_22 - 5 p1_25 + 5 p2_22 + 5 p2_25 - p3_86 >= 0
 c261: - 5 p1_22 - 5 p1_23 - 5 p1_24 + 5 p2_22 + 5 p2_23 + 5 p2_24 - p3_86 >= 0
 c262: - 5 p1_9 - 5 p1_10 + 5 p2_9 + 5 p2_10 - p3_86 >= 0
 c263: - 10 p1_22 + 10 p2_22 - p3_87 >= 0
 c264: - 10 p1_2 - 10 p1_3 - 10 p1_15 + 10 p2_2 + 10 p2_3 + 10 p2_15 - p3_87
        >= 0
 c265: - 10 p1_14 - 10 p1_15 + 10 p2_14 + 10 p2_15 - p3_87 >= 0
 c266: - 5 p1_2 - 5 p1_13 - 5 p1_18 + 5 p2_2 + 5 p2_13 + 5 p2_18 - p3_88 >= 0
 c267: - 5 p1_3 - 5 p1_22 - 5 p1_24 + 5 p2_3 + 5 p2_22 + 5 p2_24 - p3_88 >= 0
 c268: - 5 p1_3 - 5 p1_22 - 5 p1_23 - 5 p1_25 + 5 p2_3 + 5 p2_22 + 5 p2_23
       + 5 p2_25 - p3_88 >= 0
 c269: - 5 p1_5 - 5 p1_12 - 5 p1_18 + 5 p2_5 + 5 p2_12 + 5 p2_18 - p3_89 >= 0
 c270: - 5 p1_4 - 5 p1_10 - 5 p1_23 + 5 p2_4 + 5 p2_10 + 5 p2_23 - p3_89 >= 0
 c271: - 5 p1_4 - 5 p1_7 - 5 p1_12 - 5 p1_18 + 5 p2_4 + 5 p2_7 + 5 p2_12
       + 5 p2_18 - p3_89 >= 0
 c272: - 8 p1_10 - 8 p1_23 + 8 p2_10 + 8 p2_23 - p3_90 >= 0
 c273: - 8 p1_8 - 8 p1_19 + 8 p2_8 + 8 p2_19 - p3_90 >= 0
 c274: - 8 p1_7 - 8 p1_12 - 8 p1_18 + 8 p2_7 + 8 p2_12 + 8 p2_18 - p3_90 >= 0
 c275: - 5 p1_12 - 5 p1_18 + 5 p2_12 + 5 p2_18 - p3_91 >= 0
 c276: - 5 p1_7 - 5 p1_10 - 5 p1_23 + 5 p2_7 + 5 p2_10 + 5 p2_23 - p3_91 >= 0
 c277: - 5 p1_11 - 5 p1_13 - 5 p1_18 + 5 p2_11 + 5 p2_13 + 5 p2_18 - p3_91 >= 0
 c278: - 5 p1_13 - 5 p1_18 + 5 p2_13 + 5 p2_18 - p3_92 >= 0
 c279: - 5 p1_11 - 5 p1_12 - 5 p1_18 + 5 p2_11 + 5 p2_12 + 5 p2_18 - p3_92 >= 0
 c280: - 5 p1_2 - 5 p1_3 - 5 p1_22 - 5 p1_24 + 5 p2_2 + 5 p2_3 + 5 p2_22
       + 5 p2_24 - p3_92 >= 0
 c281: - 5 p1_18 + 5 p2_18 - p3_93 >= 0
 c282: - 5 p1_7 - 5 p1_10 - 5 p1_12 - 5 p1_23 + 5 p2_7 + 5 p2_10 + 5 p2_12
       + 5 p2_23 - p3_93 >= 0
 c283: - 5 p1_16 - 5 p1_19 + 5 p2_16 + 5 p2_19 - p3_93 >= 0
 c284: - 8 p1_19 + 8 p2_19 - p3_94 >= 0
 c285: - 8 p1_8 - 8 p1_10 - 8 p1_23 + 8 p2_8 + 8 p2_10 + 8 p2_23 - p3_94 >= 0
 c286: - 8 p1_16 - 8 p1_18 + 8 p2_16 + 8 p2_18 - p3_94 >= 0
 c287: - 8 p1_22 - 8 p1_24 + 8 p2_22 + 8 p2_24 - p3_95 >= 0
 c288: - 8 p1_22 - 8 p1_23 - 8 p1_25 + 8 p2_22 + 8 p2_23 + 8 p2_25 - p3_95 >= 0
 c289: - 8 p1_21 + 8 p2_21 - p3_95 >= 0
 c290: - p3_96 >= 0
 c291: - p3_96 >= 0
 c292: - p3_96 >= 0
 c293: - 6 p1_23 + 6 p2_23 - p3_97 >= 0
 c294: - 6 p1_24 - 6 p1_25 + 6 p2_24 + 6 p2_25 - p3_97 >= 0
 c295: - 6 p1_7 - 6 p1_10 - 6 p1_12 - 6 p1_18 + 6 p2_7 + 6 p2_10 + 6 p2_12
       + 6 p2_18 - p3_97 >= 0
 c296: - 9 p1_24 + 9 p2_24 - p3_98 >= 0
 c297: - 9 p1_23 - 9 p1_25 + 9 p2_23 + 9 p2_25 - p3_98 >= 0
 c298: - 9 p1_21 - 9 p1_22 + 9 p2_21 + 9 p2_22 - p3_98 >= 0
 c299: - 8 p1_3 - 8 p1_22 - 8 p1_25 + 8 p2_3 + 8 p2_22 + 8 p2_25 - p3_99 >= 0
 c300: - 8 p1_2 - 8 p1_14 - 8 p1_22 - 8 p1_25 + 8 p2_2 + 8 p2_14 + 8 p2_22
       + 8 p2_25 - p3_99 >= 0
 c301: - 8 p1_2 - 8 p1_13 - 8 p1_18 - 8 p1_23 + 8 p2_2 + 8 p2_13 + 8 p2_18
       + 8 p2_23 - p3_99 >= 0
 c302: - 7 p1_4 - 7 p1_10 + 7 p2_4 + 7 p2_10 - p3_100 >= 0
 c303: - 7 p1_5 - 7 p1_12 - 7 p1_18 - 7 p1_23 + 7 p2_5 + 7 p2_12 + 7 p2_18
       + 7 p2_23 - p3_100 >= 0
 c304: - 7 p1_5 - 7 p1_7 - 7 p1_10 + 7 p2_5 + 7 p2_7 + 7 p2_10 - p3_100 >= 0
 c305: - 9 p1_10 + 9 p2_10 - p3_101 >= 0
 c306: - 9 p1_8 - 9 p1_20 + 9 p2_8 + 9 p2_20 - p3_101 >= 0
 c307: - 9 p1_8 - 9 p1_19 - 9 p1_23 + 9 p2_8 + 9 p2_19 + 9 p2_23 - p3_101 >= 0
 c308: - 7 p1_7 - 7 p1_10 + 7 p2_7 + 7 p2_10 - p3_102 >= 0
 c309: - 7 p1_12 - 7 p1_18 - 7 p1_23 + 7 p2_12 + 7 p2_18 + 7 p2_23 - p3_102 >= 
       0
 c310: - 7 p1_4 - 7 p1_5 - 7 p1_10 + 7 p2_4 + 7 p2_5 + 7 p2_10 - p3_102 >= 0
 c311: - 9 p1_2 - 9 p1_3 - 9 p1_22 - 9 p1_25 + 9 p2_2 + 9 p2_3 + 9 p2_22
       + 9 p2_25 - p3_103 >= 0
 c312: - 9 p1_14 - 9 p1_22 - 9 p1_25 + 9 p2_14 + 9 p2_22 + 9 p2_25 - p3_103 >= 
       0
 c313: - 9 p1_13 - 9 p1_18 - 9 p1_23 + 9 p2_13 + 9 p2_18 + 9 p2_23 - p3_103 >= 
       0
 c314: - 10 p1_18 - 10 p1_23 + 10 p2_18 + 10 p2_23 - p3_104 >= 0
 c315: - 10 p1_18 - 10 p1_24 - 10 p1_25 + 10 p2_18 + 10 p2_24 + 10 p2_25
       - p3_104 >= 0
 c316: - 10 p1_7 - 10 p1_10 - 10 p1_12 + 10 p2_7 + 10 p2_10 + 10 p2_12 - p3_104
        >= 0
 c317: - 7 p1_8 - 7 p1_10 + 7 p2_8 + 7 p2_10 - p3_105 >= 0
 c318: - 7 p1_20 + 7 p2_20 - p3_105 >= 0
 c319: - 7 p1_19 - 7 p1_23 + 7 p2_19 + 7 p2_23 - p3_105 >= 0
 c320: - 9 p1_22 - 9 p1_25 + 9 p2_22 + 9 p2_25 - p3_106 >= 0
 c321: - 9 p1_22 - 9 p1_23 - 9 p1_24 + 9 p2_22 + 9 p2_23 + 9 p2_24 - p3_106 >= 
       0
 c322: - 9 p1_9 - 9 p1_10 + 9 p2_9 + 9 p2_10 - p3_106 >= 0
 c323: - 9 p1_23 + 9 p2_23 - p3_107 >= 0
 c324: - 9 p1_24 - 9 p1_25 + 9 p2_24 + 9 p2_25 - p3_107 >= 0
 c325: - 9 p1_8 - 9 p1_10 - 9 p1_19 + 9 p2_8 + 9 p2_10 + 9 p2_19 - p3_107 >= 0
 c326: - p3_108 >= 0
 c327: - p3_108 >= 0
 c328: - p3_108 >= 0
 c329: - 10 p1_25 + 10 p2_25 - p3_109 >= 0
 c330: - 10 p1_23 - 10 p1_24 + 10 p2_23 + 10 p2_24 - p3_109 >= 0
 c331: - 10 p1_9 - 10 p1_10 - 10 p1_22 + 10 p2_9 + 10 p2_10 + 10 p2_22 - p3_109
        >= 0
 c332: - 7 p1_3 - 7 p1_22 + 7 p2_3 + 7 p2_22 - p3_110 >= 0
 c333: - 7 p1_2 - 7 p1_14 - 7 p1_22 + 7 p2_2 + 7 p2_14 + 7 p2_22 - p3_110 >= 0
 c334: - 7 p1_2 - 7 p1_15 + 7 p2_2 + 7 p2_15 - p3_110 >= 0
 c335: - 10 p1_4 - 10 p1_10 - 10 p1_25 + 10 p2_4 + 10 p2_10 + 10 p2_25 - p3_111
        >= 0
 c336: - 10 p1_0 - 10 p1_3 - 10 p1_22 + 10 p2_0 + 10 p2_3 + 10 p2_22 - p3_111
        >= 0
 c337: - 10 p1_1 - 10 p1_3 - 10 p1_5 - 10 p1_22 + 10 p2_1 + 10 p2_3 + 10 p2_5
       + 10 p2_22 - p3_111 >= 0
 c338: - 6 p1_10 - 6 p1_25 + 6 p2_10 + 6 p2_25 - p3_112 >= 0
 c339: - 6 p1_9 - 6 p1_22 + 6 p2_9 + 6 p2_22 - p3_112 >= 0
 c340: - 6 p1_10 - 6 p1_23 - 6 p1_24 + 6 p2_10 + 6 p2_23 + 6 p2_24 - p3_112 >= 
       0
 c341: - 10 p1_1 - 10 p1_3 - 10 p1_22 + 10 p2_1 + 10 p2_3 + 10 p2_22 - p3_113
        >= 0
 c342: - 10 p1_2 - 10 p1_3 - 10 p1_11 - 10 p1_22 + 10 p2_2 + 10 p2_3 + 10 p2_11
       + 10 p2_22 - p3_113 >= 0
 c343: - 10 p1_7 - 10 p1_10 - 10 p1_25 + 10 p2_7 + 10 p2_10 + 10 p2_25 - p3_113
        >= 0
 c344: - 5 p1_2 - 5 p1_3 - 5 p1_22 + 5 p2_2 + 5 p2_3 + 5 p2_22 - p3_114 >= 0
 c345: - 5 p1_14 - 5 p1_22 + 5 p2_14 + 5 p2_22 - p3_114 >= 0
 c346: - 5 p1_15 + 5 p2_15 - p3_114 >= 0
 c347: - 8 p1_18 - 8 p1_24 + 8 p2_18 + 8 p2_24 - p3_115 >= 0
 c348: - 8 p1_18 - 8 p1_23 - 8 p1_25 + 8 p2_18 + 8 p2_23 + 8 p2_25 - p3_115 >= 
       0
 c349: - 8 p1_17 - 8 p1_22 + 8 p2_17 + 8 p2_22 - p3_115 >= 0
 c350: - 8 p1_8 - 8 p1_10 - 8 p1_25 + 8 p2_8 + 8 p2_10 + 8 p2_25 - p3_116 >= 0
 c351: - 8 p1_19 - 8 p1_24 + 8 p2_19 + 8 p2_24 - p3_116 >= 0
 c352: - 8 p1_20 - 8 p1_25 + 8 p2_20 + 8 p2_25 - p3_116 >= 0
 c353: - 5 p1_22 + 5 p2_22 - p3_117 >= 0
 c354: - 5 p1_2 - 5 p1_3 - 5 p1_15 + 5 p2_2 + 5 p2_3 + 5 p2_15 - p3_117 >= 0
 c355: - 5 p1_14 - 5 p1_15 + 5 p2_14 + 5 p2_15 - p3_117 >= 0
 c356: - 8 p1_24 + 8 p2_24 - p3_118 >= 0
 c357: - 8 p1_23 - 8 p1_25 + 8 p2_23 + 8 p2_25 - p3_118 >= 0
 c358: - 8 p1_21 - 8 p1_22 + 8 p2_21 + 8 p2_22 - p3_118 >= 0
 c359: - 5 p1_25 + 5 p2_25 - p3_119 >= 0
 c360: - 5 p1_23 - 5 p1_24 + 5 p2_23 + 5 p2_24 - p3_119 >= 0
 c361: - 5 p1_9 - 5 p1_10 - 5 p1_22 + 5 p2_9 + 5 p2_10 + 5 p2_22 - p3_119 >= 0
 c362: - p3_120 >= 0
 c363: - p3_120 >= 0
 c364: - p3_120 >= 0

Bounds
       p1_0 = 0
       p1_1 = 0
       p1_2 = 0
       p1_3 = 0
       p1_4 = 0
       p1_5 = 0
       p1_6 = 0
       p1_7 = 0
       p1_8 = 0
       p1_9 = 0
       p1_10 = 0
       p1_11 = 0
       p1_12 = 0
       p1_13 = 0
       p1_14 = 0
       p1_15 = 0
       p1_16 = 0
       p1_17 = 0
       p1_18 = 0
       p1_19 = 0
       p1_20 = 0
       p1_21 = 0
       p1_22 = 0
       p1_23 = 0
       p1_24 = 0
       p1_25 = 0
End
